
--- Job MPEC_relaxed.gms Start 09/16/21 16:12:35 35.2.0 r33388c4 WEX-WEI x86 64bit/MS Windows
--- Applying:
    C:\Program Files\GAMS-35\gmsprmNT.txt
--- GAMS Parameters defined
    Input "C:\Users\ansel\OneDrive\PhD\2 - Where to place new power generation\Three node models\MPEC_relaxed.gms"
    PageSize 0
    ScrDir "C:\Users\ansel\OneDrive\PhD\2 - Where to place new power generation\Three node models\225c\"
    SysDir "C:\Program Files\GAMS-35\"
    LogOption 3
    ErrMsg 1
    ErrorLog 99
    IDE 1
    LstTitleLeftAligned 1
Licensee: GAMS Community License for Anselm Eicke        G210709|0002AO-GEN
          Hertie School of Governance GmbH                           CL1515
          C:\Users\ansel\OneDrive\Dokumente\GAMS\gamslice.txt
          Anselm Eicke, eicke@hertie-school.org                            
          Community license for demonstration and instructional purposes only
GAMS 35.2.0   Copyright (C) 1987-2021 GAMS Development. All rights reserved
--- Starting compilation
--- MPEC_relaxed.gms(82) 3 Mb
--- GDXin=C:\Users\ansel\OneDrive\PhD\2 - Where to place new power generation\Three node models\in.gdx
--- GDX File ($gdxIn) C:\Users\ansel\OneDrive\PhD\2 - Where to place new power generation\Three node models\in.gdx
--- MPEC_relaxed.gms(310) 3 Mb
--- Starting execution: elapsed 0:00:00.016
--- MPEC_relaxed.gms(254) 4 Mb
--- Generating MIQCP model LOCI
--- MPEC_relaxed.gms(255) 6 Mb
---   1,009 rows  753 columns  2,913 non-zeroes
---   590 nl-code  108 nl-non-zeroes
---   206 discrete-columns
--- MPEC_relaxed.gms(255) 4 Mb
--- Executing CPLEX (Solvelink=2): elapsed 0:00:00.032

IBM ILOG CPLEX   35.2.0 r33388c4 Released Jun 02, 2021 WEI x86 64bit/MS Window

--- *** This solver runs with a community license. No commercial use.
--- The search will stop after 25000000 nodes.
--- Space for names approximately 0.05 Mb
--- Use option 'names no' to turn use of names off
--- GMO memory 0.80 Mb (peak 0.81 Mb)
--- Dictionary memory 0.00 Mb
--- Cplex 20.1.0.1 link memory 0.03 Mb (peak 0.13 Mb)
--- Starting Cplex

Version identifier: 20.1.0.1 | 2021-04-07 | 3a818710c
CPXPARAM_Advance                                 0
CPXPARAM_Threads                                 1
CPXPARAM_MIP_Display                             4
CPXPARAM_MIP_Limits_Nodes                        25000000
CPXPARAM_TimeLimit                               40000
CPXPARAM_MIP_Tolerances_AbsMIPGap                0
Generic callback                                 0x50
Tried aggregator 2 times.
MIQP Presolve eliminated 455 rows and 223 columns.
MIQP Presolve modified 292 coefficients.
Aggregator did 21 substitutions.
Reduced MIQP has 532 rows, 509 columns, and 1650 nonzeros.
Reduced MIQP has 144 binaries, 0 generals, 0 SOSs, and 0 indicators.
Reduced MIQP objective Q matrix has 82 nonzeros.
Presolve time = 0.00 sec. (1.82 ticks)
Probing fixed 0 vars, tightened 180 bounds.
Probing time = 0.01 sec. (0.57 ticks)
Tried aggregator 1 time.
MIQP Presolve modified 192 coefficients.
Reduced MIQP has 532 rows, 509 columns, and 1650 nonzeros.
Reduced MIQP has 144 binaries, 0 generals, 0 SOSs, and 0 indicators.
Reduced MIQP objective Q matrix has 82 nonzeros.
Presolve time = 0.00 sec. (0.87 ticks)
Classifier predicts products in MIQP should be linearized.
Probing fixed 0 vars, tightened 24 bounds.
Probing time = 0.00 sec. (0.38 ticks)
Clique table members: 30.
MIP emphasis: balance optimality and feasibility.
MIP search method: dynamic search.
Parallel mode: none, using 1 thread.
Tried aggregator 1 time.
Aggregator did 144 substitutions.
Reduced QP has 388 rows, 365 columns, and 1362 nonzeros.
Reduced QP objective Q matrix has 82 nonzeros.
Presolve time = 0.00 sec. (0.39 ticks)
Parallel mode: none, using 1 thread for barrier

***NOTE: Found 5 dense columns.

Number of nonzeros in lower triangle of A*A' = 2187
Using Approximate Minimum Degree ordering
Total time for automatic ordering = 0.00 sec. (0.15 ticks)
Summary statistics for Cholesky factor:
  Rows in Factor            = 393
  Integer space required    = 1177
  Total non-zeros in factor = 6562
  Total FP ops to factor    = 203204
 Itn      Primal Obj        Dual Obj  Prim Inf Upper Inf  Dual Inf          
   0  -1.3898008e+05   2.9731502e+07  2.46e+04  6.94e+03  1.42e+04
   1  -4.0984258e+04   2.2551478e+07  1.80e+04  5.08e+03  1.21e+04
   2  -1.6284866e+04   1.6939936e+07  1.27e+04  3.58e+03  8.51e+03
   3   4.1877635e+04   3.8512386e+06  2.22e+03  6.27e+02  1.49e+03
   4   5.1139511e+04   1.5671750e+06  6.45e+02  1.82e+02  4.34e+02
   5   6.4570527e+04   7.2645811e+05  2.24e+02  6.34e+01  1.51e+02
   6   7.7341167e+04   1.9672526e+05  3.84e+01  1.08e+01  2.59e+01
   7   8.5322136e+04   1.1085066e+05  4.31e+00  1.22e+00  2.91e+00
   8   8.7248599e+04   9.3372743e+04  7.88e-01  2.22e-01  5.31e-01
   9   8.7771799e+04   8.9208631e+04  1.63e-01  4.62e-02  1.10e-01
  10   8.7923405e+04   8.8183537e+04  2.78e-02  7.85e-03  1.88e-02
  11   8.7957465e+04   8.7965994e+04  8.32e-04  2.35e-04  5.61e-04
  12   8.7958867e+04   8.7958977e+04  7.75e-06  2.19e-06  5.22e-06
  13   8.7958888e+04   8.7958889e+04  4.30e-08  1.21e-08  2.81e-08
  14   8.7958889e+04   8.7958889e+04  4.28e-09  3.22e-10  1.40e-10
  15   8.7958889e+04   8.7958889e+04  2.12e-09  1.62e-10  2.25e-12
Barrier time = 0.02 sec. (5.92 ticks)

QP crossover.
  Primal and Dual:  Fixing 170 variables.
  Primal:  Pushed 55, exchanged 74.
  Dual  :  Pushed 10, exchanged 53.
Total crossover time = 0.02 sec. (4.40 ticks)

Total time on 1 threads = 0.03 sec. (10.75 ticks)
Root relaxation solution time = 0.03 sec. (10.75 ticks)

        Nodes                                         Cuts/
   Node  Left     Objective  IInf  Best Integer    Best Bound    ItCnt     Gap

      0     0    87958.8886    67                  87958.8886       15         
      0     0    87958.8886    64                    Cuts: 99       51         
      0     0    87957.1326    65                    Cuts: 60       74         
      0     0    87957.1326    68                    Cuts: 47      104         
*     0+    0                            0.0000    87957.1326              --- 
Found incumbent of value 0.000000 after 0.28 sec. (182.16 ticks)
      0     2    87957.1326    68        0.0000    87951.1084      104     --- 
Elapsed time = 0.30 sec. (182.43 ticks, tree = 0.01 MB, solutions = 1)
     60    62    87649.8427    38        0.0000    87890.0890     1087     --- 
    126   118    54070.3918    50        0.0000    87890.0890     4946     --- 
                                                   MIRcuts: 1                  
    220   192    78079.7148    55        0.0000    87890.0890     9358     --- 
                                                  Impl Bds: 8                  
    350   310    87819.0288    53        0.0000    87890.0890    12378     --- 
                                                  Impl Bds: 4                  
*   458   406      integral     0        0.0000    87890.0890    15680     --- 
Found incumbent of value 0.000000 after 2.22 sec. (1403.33 ticks)

Implied bound cuts applied:  13
Flow cuts applied:  8
Mixed integer rounding cuts applied:  41

Root node processing (before b&c):
  Real time             =    0.28 sec. (182.43 ticks)
Sequential b&c:
  Real time             =    2.20 sec. (1326.32 ticks)
                          ------------
Total (root+branch&cut) =    2.48 sec. (1508.74 ticks)

--- MIQP status (113): aborted.
--- Cplex Time: 2.50sec (det. 1508.75 ticks)

--- Fixing integer variables and solving final QP...
--- The search will stop after 25000000 nodes.

Version identifier: 20.1.0.1 | 2021-04-07 | 3a818710c
CPXPARAM_Advance                                 2
CPXPARAM_Threads                                 1
CPXPARAM_MIP_Display                             4
CPXPARAM_MIP_Limits_Nodes                        25000000
CPXPARAM_TimeLimit                               40000
CPXPARAM_MIP_Tolerances_AbsMIPGap                0
Tried aggregator 1 time.
QP Presolve eliminated 874 rows and 636 columns.
Aggregator did 52 substitutions.
Reduced QP has 82 rows, 65 columns, and 235 nonzeros.
Reduced QP objective Q matrix has 31 nonzeros.
Presolve time = 0.00 sec. (0.60 ticks)

Iteration log . . .
Iteration:     1    Phase I obj   =        162065.113437
Iteration:    21    Objective     =        154349.080509
Iteration:    64    Objective     =         73176.432665
Iteration:   125    Objective     =             0.000000
Iteration:   127    Objective     =             0.000000
Markowitz threshold set to 0.2

--- Fixed MIQP status (1): optimal.
--- Cplex Time: 0.00sec (det. 3.33 ticks)


Problem aborted
MIP Solution:            0.000000    (16770 iterations, 508 nodes)
Final Solve:            -0.000000    (134 iterations)

Best possible:       87890.089004
Absolute gap:        87890.089004
Relative gap:            1.000000

--- Reading solution for model LOCI
--- Executing after solve: elapsed 0:00:02.717
--- MPEC_relaxed.gms(272) 4 Mb
*** Error at line 272: division by zero (0)
--- MPEC_relaxed.gms(310) 4 Mb 1 Error
--- GDX File (execute_unload) C:\Users\ansel\OneDrive\PhD\2 - Where to place new power generation\Three node models\in.gdx
--- MPEC_relaxed.gms(310) 4 Mb 1 Error
*** Status: Execution error(s)
--- Job MPEC_relaxed.gms Stop 09/16/21 16:12:38 elapsed 0:00:02.738
